c Generated by MiniSat
p cnf 349 175
-1 2 0
-3 -4 0
-5 -6 0
-7 8 0
9 -10 0
-11 12 0
13 14 0
-15 16 0
17 -18 0
19 -20 0
21 -22 0
23 -24 0
25 26 0
27 -28 0
29 30 0
-31 -32 0
33 34 0
35 36 0
-37 -38 0
39 -40 0
-41 42 0
43 44 0
-45 46 0
-47 48 0
49 -50 0
51 52 0
-53 54 0
-55 56 0
57 58 0
-59 60 0
61 62 0
63 64 0
65 -66 0
-67 68 0
69 70 0
-71 72 0
-73 -74 0
75 -76 0
-77 78 0
79 -80 0
-81 82 0
-83 -84 0
-85 86 0
87 -88 0
89 -90 0
-91 -92 0
93 -94 0
95 96 0
-97 98 0
-99 -100 0
-101 102 0
103 -104 0
-105 106 0
-107 108 0
-109 110 0
-111 112 0
113 114 0
-115 -116 0
117 -118 0
-119 120 0
121 122 0
123 124 0
125 126 0
-127 -128 0
-129 130 0
-131 -132 0
-133 -134 0
135 -136 0
137 138 0
-139 -140 0
-141 142 0
143 144 0
145 146 0
147 -148 0
-149 -150 0
-151 -152 0
-153 154 0
-155 156 0
-157 -158 0
-159 -160 0
-161 -162 0
163 164 0
-165 -166 0
-167 -168 0
169 170 0
-171 -172 0
-173 -174 0
-175 176 0
177 178 0
179 -180 0
181 -182 0
183 184 0
-185 186 0
-187 -188 0
189 -190 0
-191 192 0
-193 194 0
-195 196 0
197 198 0
199 -200 0
201 202 0
203 204 0
205 -206 0
207 208 0
209 -210 0
211 -212 0
10 -213 0
214 215 0
-216 -217 0
218 -219 0
220 221 0
-222 -223 0
224 -225 0
-226 -227 0
-228 229 0
230 231 0
232 233 0
-234 -235 0
-236 237 0
238 239 0
240 241 0
242 243 0
-244 245 0
-246 247 0
-248 249 0
250 251 0
-252 253 0
-254 -255 0
256 257 0
258 259 0
260 -261 0
262 263 0
-264 265 0
-266 267 0
-268 -269 0
-270 -271 0
272 273 0
274 275 0
-276 -277 0
278 279 0
-280 281 0
-282 -283 0
-284 285 0
286 -287 0
288 289 0
290 -291 0
292 -293 0
294 295 0
296 -297 0
-298 299 0
300 301 0
302 303 0
304 -305 0
-306 -307 0
-308 309 0
-310 311 0
-312 313 0
-314 -315 0
316 -317 0
-318 319 0
-320 -321 0
322 -323 0
324 325 0
326 327 0
-328 329 0
-330 331 0
-332 333 0
-334 335 0
336 337 0
338 339 0
-340 341 0
-342 -343 0
344 -345 0
-346 347 0
348 349 0
